num_offers = 20;
num_halls = 10;
start=[39,34,28,11,29,53,19,43,11,39,7,12,65,52,1,27,62,18,24,52];
end=[72,69,84,78,82,69,25,70,82,71,15,70,88,64,56,76,87,60,94,65];
price=[3359,1088,2669,3590,3075,889,74,712,803,851,399,2005,2116,954,1216,1341,580,3875,2594,1282];
requirement=[684,335,316,340,698,296,244,946,715,256,354,233,612,874,450,757,909,209,468,960];
capacity=[630,362,785,385,979,712,610,691,622,733];
